(set-info :source |printed by MathSAT|)
(declare-fun call_rtp.ite27 () Int)
(declare-fun call_rtp.ite48 () Int)
(declare-fun call_rtp.ite10 () Int)
(declare-fun call_rtp.flby8 () Int)
(declare-fun call_rtp.ite37 () Int)
(declare-fun call_rtp.ite25 () Int)
(declare-fun call_rtp.ite14 () Int)
(declare-fun call_rtp.ite41 () Int)
(declare-fun call_rtp.flby3 () Int)
(declare-fun call_rtp.ite38 () Int)
(declare-fun call_rtp.ite18 () Int)
(declare-fun call_rtp.ite7 () Int)
(declare-fun call_rtp.ite32 () Int)
(declare-fun env () Bool)
(declare-fun call_rtp.erreur () Bool)
(declare-fun call_rtp.ite29 () Int)
(declare-fun param_e06 () Bool)
(declare-fun call_rtp._X3_ () Int)
(declare-fun call_rtp.ite23 () Int)
(declare-fun call_rtp._X9_ () Int)
(declare-fun call_rtp.ite40 () Int)
(declare-fun _X6_ () Int)
(declare-fun call_rtp.ite () Bool)
(declare-fun param_e01 () Bool)
(declare-fun call_rtp._X2_ () Int)
(declare-fun param_e08 () Bool)
(declare-fun param_e11 () Bool)
(declare-fun _X8_ () Int)
(declare-fun _X4_ () Int)
(declare-fun call_rtp.ite36 () Int)
(declare-fun call_rtp.ite31 () Int)
(declare-fun call_rtp.ite15 () Int)
(declare-fun call_rtp._X8_ () Int)
(declare-fun call_rtp.ite39 () Int)
(declare-fun call_rtp.ite4 () Int)
(declare-fun param_e12 () Bool)
(declare-fun call_rtp.ite3 () Int)
(declare-fun call_rtp._X7_ () Int)
(declare-fun call_Sofar.Sofar () Bool)
(declare-fun call_rtp.flby () Int)
(declare-fun call_rtp.ite8 () Int)
(declare-fun call_rtp.ite34 () Int)
(declare-fun call_rtp.ite17 () Int)
(declare-fun param_e04 () Bool)
(declare-fun call_rtp.ite45 () Int)
(declare-fun call_rtp._X1_ () Int)
(declare-fun call_rtp.flby9 () Int)
(declare-fun _X5_ () Int)
(declare-fun call_rtp.ite21 () Int)
(declare-fun call_rtp.ite49 () Int)
(declare-fun call_rtp.ite43 () Int)
(declare-fun _X1_ () Int)
(declare-fun call_rtp.ite13 () Int)
(declare-fun param_e09 () Bool)
(declare-fun call_rtp.ite28 () Int)
(declare-fun _X9_ () Int)
(declare-fun call_rtp.ite19 () Int)
(declare-fun call_rtp.ite6 () Int)
(declare-fun call_rtp.flby5 () Int)
(declare-fun call_rtp.ite12 () Int)
(declare-fun call_rtp.ite47 () Int)
(declare-fun call_rtp.ite5 () Int)
(declare-fun call_rtp._X6_ () Int)
(declare-fun call_rtp.ite35 () Int)
(declare-fun param_e05 () Bool)
(declare-fun call_rtp.ite46 () Int)
(declare-fun call_rtp._X5_ () Int)
(declare-fun _OK_ () Bool)
(declare-fun call_rtp.ite42 () Int)
(declare-fun call_rtp.flby7 () Int)
(declare-fun call_rtp.ite20 () Int)
(declare-fun call_Sofar.flby () Bool)
(declare-fun param_e02 () Bool)
(declare-fun call_rtp.ite33 () Int)
(declare-fun _X7_ () Int)
(declare-fun call_rtp.ite22 () Int)
(declare-fun call_rtp.ite26 () Int)
(declare-fun call_rtp.flby4 () Int)
(declare-fun call_rtp.ite16 () Int)
(declare-fun call_rtp._X4_ () Int)
(declare-fun call_rtp.ite11 () Int)
(declare-fun _X3_ () Int)
(declare-fun erreur () Bool)
(declare-fun param_e03 () Bool)
(declare-fun call_rtp.flby6 () Int)
(declare-fun call_rtp.ite2 () Int)
(declare-fun call_rtp.ite9 () Int)
(declare-fun call_rtp.flby2 () Int)
(declare-fun call_rtp.ite24 () Int)
(declare-fun call_rtp.ite44 () Int)
(declare-fun call_rtp.ite30 () Int)
(declare-fun call_excludes12.excludes () Bool)
(declare-fun _X2_ () Int)
(declare-fun param_e07 () Bool)
(declare-fun param_e10 () Bool)
(define-fun .def_1633 () Bool (= call_Sofar.flby call_Sofar.Sofar))
(define-fun .def_1465 () Bool (not param_e02))
(define-fun .def_1226 () Bool (not param_e01))
(define-fun .def_1531 () Bool (and .def_1226 .def_1465))
(define-fun .def_1245 () Bool (not param_e03))
(define-fun .def_1532 () Bool (and .def_1245 .def_1531))
(define-fun .def_1491 () Bool (not param_e04))
(define-fun .def_1533 () Bool (and .def_1491 .def_1532))
(define-fun .def_1198 () Bool (not param_e05))
(define-fun .def_1534 () Bool (and .def_1198 .def_1533))
(define-fun .def_1192 () Bool (not param_e06))
(define-fun .def_1535 () Bool (and .def_1192 .def_1534))
(define-fun .def_1338 () Bool (not param_e07))
(define-fun .def_1536 () Bool (and .def_1338 .def_1535))
(define-fun .def_1395 () Bool (not param_e08))
(define-fun .def_1537 () Bool (and .def_1395 .def_1536))
(define-fun .def_1205 () Bool (not param_e09))
(define-fun .def_1538 () Bool (and .def_1205 .def_1537))
(define-fun .def_1212 () Bool (not param_e10))
(define-fun .def_1539 () Bool (and .def_1212 .def_1538))
(define-fun .def_1219 () Bool (not param_e11))
(define-fun .def_1540 () Bool (and .def_1219 .def_1539))
(define-fun .def_1233 () Bool (not param_e12))
(define-fun .def_1618 () Bool (and .def_1233 .def_1540))
(define-fun .def_1607 () Bool (and param_e01 .def_1465))
(define-fun .def_1608 () Bool (and .def_1245 .def_1607))
(define-fun .def_1609 () Bool (and .def_1491 .def_1608))
(define-fun .def_1610 () Bool (and .def_1198 .def_1609))
(define-fun .def_1611 () Bool (and .def_1192 .def_1610))
(define-fun .def_1612 () Bool (and .def_1338 .def_1611))
(define-fun .def_1613 () Bool (and .def_1395 .def_1612))
(define-fun .def_1614 () Bool (and .def_1205 .def_1613))
(define-fun .def_1615 () Bool (and .def_1212 .def_1614))
(define-fun .def_1616 () Bool (and .def_1219 .def_1615))
(define-fun .def_1617 () Bool (and .def_1233 .def_1616))
(define-fun .def_1619 () Bool (or .def_1617 .def_1618))
(define-fun .def_1596 () Bool (and .def_1226 param_e02))
(define-fun .def_1597 () Bool (and .def_1245 .def_1596))
(define-fun .def_1598 () Bool (and .def_1491 .def_1597))
(define-fun .def_1599 () Bool (and .def_1198 .def_1598))
(define-fun .def_1600 () Bool (and .def_1192 .def_1599))
(define-fun .def_1601 () Bool (and .def_1338 .def_1600))
(define-fun .def_1602 () Bool (and .def_1395 .def_1601))
(define-fun .def_1603 () Bool (and .def_1205 .def_1602))
(define-fun .def_1604 () Bool (and .def_1212 .def_1603))
(define-fun .def_1605 () Bool (and .def_1219 .def_1604))
(define-fun .def_1606 () Bool (and .def_1233 .def_1605))
(define-fun .def_1620 () Bool (or .def_1606 .def_1619))
(define-fun .def_1586 () Bool (and param_e03 .def_1531))
(define-fun .def_1587 () Bool (and .def_1491 .def_1586))
(define-fun .def_1588 () Bool (and .def_1198 .def_1587))
(define-fun .def_1589 () Bool (and .def_1192 .def_1588))
(define-fun .def_1590 () Bool (and .def_1338 .def_1589))
(define-fun .def_1591 () Bool (and .def_1395 .def_1590))
(define-fun .def_1592 () Bool (and .def_1205 .def_1591))
(define-fun .def_1593 () Bool (and .def_1212 .def_1592))
(define-fun .def_1594 () Bool (and .def_1219 .def_1593))
(define-fun .def_1595 () Bool (and .def_1233 .def_1594))
(define-fun .def_1621 () Bool (or .def_1595 .def_1620))
(define-fun .def_1577 () Bool (and param_e04 .def_1532))
(define-fun .def_1578 () Bool (and .def_1198 .def_1577))
(define-fun .def_1579 () Bool (and .def_1192 .def_1578))
(define-fun .def_1580 () Bool (and .def_1338 .def_1579))
(define-fun .def_1581 () Bool (and .def_1395 .def_1580))
(define-fun .def_1582 () Bool (and .def_1205 .def_1581))
(define-fun .def_1583 () Bool (and .def_1212 .def_1582))
(define-fun .def_1584 () Bool (and .def_1219 .def_1583))
(define-fun .def_1585 () Bool (and .def_1233 .def_1584))
(define-fun .def_1622 () Bool (or .def_1585 .def_1621))
(define-fun .def_1569 () Bool (and param_e05 .def_1533))
(define-fun .def_1570 () Bool (and .def_1192 .def_1569))
(define-fun .def_1571 () Bool (and .def_1338 .def_1570))
(define-fun .def_1572 () Bool (and .def_1395 .def_1571))
(define-fun .def_1573 () Bool (and .def_1205 .def_1572))
(define-fun .def_1574 () Bool (and .def_1212 .def_1573))
(define-fun .def_1575 () Bool (and .def_1219 .def_1574))
(define-fun .def_1576 () Bool (and .def_1233 .def_1575))
(define-fun .def_1623 () Bool (or .def_1576 .def_1622))
(define-fun .def_1562 () Bool (and param_e06 .def_1534))
(define-fun .def_1563 () Bool (and .def_1338 .def_1562))
(define-fun .def_1564 () Bool (and .def_1395 .def_1563))
(define-fun .def_1565 () Bool (and .def_1205 .def_1564))
(define-fun .def_1566 () Bool (and .def_1212 .def_1565))
(define-fun .def_1567 () Bool (and .def_1219 .def_1566))
(define-fun .def_1568 () Bool (and .def_1233 .def_1567))
(define-fun .def_1624 () Bool (or .def_1568 .def_1623))
(define-fun .def_1556 () Bool (and param_e07 .def_1535))
(define-fun .def_1557 () Bool (and .def_1395 .def_1556))
(define-fun .def_1558 () Bool (and .def_1205 .def_1557))
(define-fun .def_1559 () Bool (and .def_1212 .def_1558))
(define-fun .def_1560 () Bool (and .def_1219 .def_1559))
(define-fun .def_1561 () Bool (and .def_1233 .def_1560))
(define-fun .def_1625 () Bool (or .def_1561 .def_1624))
(define-fun .def_1551 () Bool (and param_e08 .def_1536))
(define-fun .def_1552 () Bool (and .def_1205 .def_1551))
(define-fun .def_1553 () Bool (and .def_1212 .def_1552))
(define-fun .def_1554 () Bool (and .def_1219 .def_1553))
(define-fun .def_1555 () Bool (and .def_1233 .def_1554))
(define-fun .def_1626 () Bool (or .def_1555 .def_1625))
(define-fun .def_1547 () Bool (and param_e09 .def_1537))
(define-fun .def_1548 () Bool (and .def_1212 .def_1547))
(define-fun .def_1549 () Bool (and .def_1219 .def_1548))
(define-fun .def_1550 () Bool (and .def_1233 .def_1549))
(define-fun .def_1627 () Bool (or .def_1550 .def_1626))
(define-fun .def_1544 () Bool (and param_e10 .def_1538))
(define-fun .def_1545 () Bool (and .def_1219 .def_1544))
(define-fun .def_1546 () Bool (and .def_1233 .def_1545))
(define-fun .def_1628 () Bool (or .def_1546 .def_1627))
(define-fun .def_1542 () Bool (and param_e11 .def_1539))
(define-fun .def_1543 () Bool (and .def_1233 .def_1542))
(define-fun .def_1629 () Bool (or .def_1543 .def_1628))
(define-fun .def_1541 () Bool (and param_e12 .def_1540))
(define-fun .def_1630 () Bool (or .def_1541 .def_1629))
(define-fun .def_1631 () Bool (= call_excludes12.excludes .def_1630))
(define-fun .def_1529 () Bool (= call_rtp.erreur call_rtp.ite))
(define-fun .def_1527 () Bool (= call_rtp.flby9 call_rtp._X9_))
(define-fun .def_1525 () Bool (= call_rtp.flby8 call_rtp._X8_))
(define-fun .def_1523 () Bool (= call_rtp.flby7 call_rtp._X7_))
(define-fun .def_1521 () Bool (= call_rtp.flby6 call_rtp._X6_))
(define-fun .def_1519 () Bool (= call_rtp.flby5 call_rtp._X5_))
(define-fun .def_1517 () Bool (= call_rtp.flby4 call_rtp._X4_))
(define-fun .def_1515 () Bool (= call_rtp.flby3 call_rtp._X3_))
(define-fun .def_1513 () Bool (= call_rtp.flby2 call_rtp._X2_))
(define-fun .def_1510 () Bool (= call_rtp.flby call_rtp._X1_))
(define-fun .def_1505 () Bool (<= 2 call_rtp._X1_))
(define-fun .def_1507 () Bool (not .def_1505))
(define-fun .def_1508 () Bool (or call_rtp.ite .def_1507))
(define-fun .def_1504 () Bool (not call_rtp.ite))
(define-fun .def_1506 () Bool (or .def_1504 .def_1505))
(define-fun .def_1509 () Bool (and .def_1506 .def_1508))
(define-fun .def_1511 () Bool (and .def_1509 .def_1510))
(define-fun .def_1499 () Bool (= call_rtp.ite22 call_rtp.ite23))
(define-fun .def_1500 () Bool (or param_e04 .def_1499))
(define-fun .def_1496 () Bool (= call_rtp.ite20 call_rtp.ite23))
(define-fun .def_1497 () Bool (or .def_1491 .def_1496))
(define-fun .def_1490 () Bool (= call_rtp.ite18 call_rtp.ite15))
(define-fun .def_1492 () Bool (or .def_1490 .def_1491))
(define-fun .def_1486 () Bool (= call_rtp.ite17 call_rtp.ite18))
(define-fun .def_1488 () Bool (or .def_1486 param_e04))
(define-fun .def_1493 () Bool (and .def_1488 .def_1492))
(define-fun .def_1498 () Bool (and .def_1493 .def_1497))
(define-fun .def_1501 () Bool (and .def_1498 .def_1500))
(define-fun .def_1482 () Bool (= call_rtp.ite19 call_rtp.ite14))
(define-fun .def_1483 () Bool (or .def_1245 .def_1482))
(define-fun .def_1479 () Bool (= call_rtp.ite19 call_rtp.ite18))
(define-fun .def_1480 () Bool (or param_e03 .def_1479))
(define-fun .def_1484 () Bool (and .def_1480 .def_1483))
(define-fun .def_1473 () Bool (= call_rtp.ite12 call_rtp.ite13))
(define-fun .def_1474 () Bool (or param_e02 .def_1473))
(define-fun .def_1470 () Bool (= call_rtp.ite10 call_rtp.ite13))
(define-fun .def_1471 () Bool (or .def_1465 .def_1470))
(define-fun .def_1464 () Bool (= call_rtp.ite8 call_rtp.ite5))
(define-fun .def_1466 () Bool (or .def_1464 .def_1465))
(define-fun .def_1460 () Bool (= call_rtp.ite7 call_rtp.ite8))
(define-fun .def_1462 () Bool (or .def_1460 param_e02))
(define-fun .def_1467 () Bool (and .def_1462 .def_1466))
(define-fun .def_1472 () Bool (and .def_1467 .def_1471))
(define-fun .def_1475 () Bool (and .def_1472 .def_1474))
(define-fun .def_1456 () Bool (= call_rtp.ite9 call_rtp.ite4))
(define-fun .def_1457 () Bool (or .def_1226 .def_1456))
(define-fun .def_1453 () Bool (= call_rtp.ite9 call_rtp.ite8))
(define-fun .def_1454 () Bool (or param_e01 .def_1453))
(define-fun .def_1458 () Bool (and .def_1454 .def_1457))
(define-fun .def_1447 () Bool (= call_rtp.ite46 call_rtp.ite43))
(define-fun .def_1448 () Bool (or .def_1219 .def_1447))
(define-fun .def_1444 () Bool (= call_rtp.ite45 call_rtp.ite46))
(define-fun .def_1445 () Bool (or param_e11 .def_1444))
(define-fun .def_1449 () Bool (and .def_1445 .def_1448))
(define-fun .def_1440 () Bool (= call_rtp.ite47 call_rtp.ite42))
(define-fun .def_1441 () Bool (or .def_1212 .def_1440))
(define-fun .def_1437 () Bool (= call_rtp.ite47 call_rtp.ite46))
(define-fun .def_1438 () Bool (or param_e10 .def_1437))
(define-fun .def_1442 () Bool (and .def_1438 .def_1441))
(define-fun .def_1432 () Bool (= call_rtp.ite39 call_rtp.ite36))
(define-fun .def_1433 () Bool (or .def_1205 .def_1432))
(define-fun .def_1429 () Bool (= call_rtp.ite38 call_rtp.ite39))
(define-fun .def_1430 () Bool (or param_e09 .def_1429))
(define-fun .def_1434 () Bool (and .def_1430 .def_1433))
(define-fun .def_1426 () Bool (= env call_Sofar.Sofar))
(define-fun .def_1423 () Bool (= erreur call_rtp.erreur))
(define-fun .def_1420 () Bool (= _X9_ call_rtp._X9_))
(define-fun .def_1417 () Bool (= _X8_ call_rtp._X8_))
(define-fun .def_1414 () Bool (= _X7_ call_rtp._X7_))
(define-fun .def_1411 () Bool (= _X6_ call_rtp._X6_))
(define-fun .def_1408 () Bool (= _X5_ call_rtp._X5_))
(define-fun .def_1403 () Bool (= call_rtp.ite34 call_rtp.ite35))
(define-fun .def_1404 () Bool (or param_e08 .def_1403))
(define-fun .def_1400 () Bool (= call_rtp.ite32 call_rtp.ite35))
(define-fun .def_1401 () Bool (or .def_1395 .def_1400))
(define-fun .def_1394 () Bool (= call_rtp.ite29 call_rtp.ite26))
(define-fun .def_1396 () Bool (or .def_1394 .def_1395))
(define-fun .def_1390 () Bool (= call_rtp.ite28 call_rtp.ite29))
(define-fun .def_1392 () Bool (or .def_1390 param_e08))
(define-fun .def_1397 () Bool (and .def_1392 .def_1396))
(define-fun .def_1402 () Bool (and .def_1397 .def_1401))
(define-fun .def_1405 () Bool (and .def_1402 .def_1404))
(define-fun .def_1388 () Bool (= _X4_ call_rtp._X4_))
(define-fun .def_1385 () Bool (= _X3_ call_rtp._X3_))
(define-fun .def_1382 () Bool (= _X2_ call_rtp._X2_))
(define-fun .def_1379 () Bool (= _X1_ call_rtp._X1_))
(define-fun .def_1373 () Bool (<= 0 _X9_))
(define-fun .def_1371 () Bool (<= 0 _X8_))
(define-fun .def_1369 () Bool (<= 0 _X7_))
(define-fun .def_1367 () Bool (<= 0 _X6_))
(define-fun .def_1365 () Bool (<= 0 _X5_))
(define-fun .def_1363 () Bool (<= 0 _X4_))
(define-fun .def_1361 () Bool (<= 0 _X3_))
(define-fun .def_1359 () Bool (<= 0 _X2_))
(define-fun .def_1357 () Bool (<= _X1_ 1))
(define-fun .def_1355 () Bool (<= 0 _X1_))
(define-fun .def_1354 () Bool (not erreur))
(define-fun .def_1356 () Bool (and .def_1354 .def_1355))
(define-fun .def_1358 () Bool (and .def_1356 .def_1357))
(define-fun .def_1360 () Bool (and .def_1358 .def_1359))
(define-fun .def_1362 () Bool (and .def_1360 .def_1361))
(define-fun .def_1364 () Bool (and .def_1362 .def_1363))
(define-fun .def_1366 () Bool (and .def_1364 .def_1365))
(define-fun .def_1368 () Bool (and .def_1366 .def_1367))
(define-fun .def_1370 () Bool (and .def_1368 .def_1369))
(define-fun .def_1372 () Bool (and .def_1370 .def_1371))
(define-fun .def_1374 () Bool (and .def_1372 .def_1373))
(define-fun .def_1352 () Bool (not env))
(define-fun .def_1375 () Bool (or .def_1352 .def_1374))
(define-fun .def_1376 () Bool (= _OK_ .def_1375))
(define-fun .def_1346 () Bool (= call_rtp.ite30 call_rtp.ite29))
(define-fun .def_1347 () Bool (or param_e07 .def_1346))
(define-fun .def_1342 () Bool (= call_rtp.ite30 call_rtp.ite25))
(define-fun .def_1343 () Bool (or .def_1338 .def_1342))
(define-fun .def_1337 () Bool (= call_rtp.ite48 call_rtp.ite41))
(define-fun .def_1339 () Bool (or .def_1337 .def_1338))
(define-fun .def_1333 () Bool (= call_rtp.ite48 call_rtp.ite47))
(define-fun .def_1335 () Bool (or .def_1333 param_e07))
(define-fun .def_1340 () Bool (and .def_1335 .def_1339))
(define-fun .def_1344 () Bool (and .def_1340 .def_1343))
(define-fun .def_1348 () Bool (and .def_1344 .def_1347))
(define-fun .def_1328 () Bool (= call_rtp.ite49 call_rtp.ite40))
(define-fun .def_1329 () Bool (or .def_1198 .def_1328))
(define-fun .def_1325 () Bool (= call_rtp.ite49 call_rtp.ite48))
(define-fun .def_1326 () Bool (or param_e05 .def_1325))
(define-fun .def_1330 () Bool (and .def_1326 .def_1329))
(define-fun .def_1320 () Bool (= call_rtp.ite31 call_rtp.ite24))
(define-fun .def_1321 () Bool (or .def_1192 .def_1320))
(define-fun .def_1317 () Bool (= call_rtp.ite31 call_rtp.ite30))
(define-fun .def_1318 () Bool (or param_e06 .def_1317))
(define-fun .def_1322 () Bool (and .def_1318 .def_1321))
(define-fun .def_1331 () Bool (and .def_1322 .def_1330))
(define-fun .def_1349 () Bool (and .def_1331 .def_1348))
(define-fun .def_1377 () Bool (and .def_1349 .def_1376))
(define-fun .def_1380 () Bool (and .def_1377 .def_1379))
(define-fun .def_1383 () Bool (and .def_1380 .def_1382))
(define-fun .def_1386 () Bool (and .def_1383 .def_1385))
(define-fun .def_1389 () Bool (and .def_1386 .def_1388))
(define-fun .def_1406 () Bool (and .def_1389 .def_1405))
(define-fun .def_1409 () Bool (and .def_1406 .def_1408))
(define-fun .def_1412 () Bool (and .def_1409 .def_1411))
(define-fun .def_1415 () Bool (and .def_1412 .def_1414))
(define-fun .def_1418 () Bool (and .def_1415 .def_1417))
(define-fun .def_1421 () Bool (and .def_1418 .def_1420))
(define-fun .def_1424 () Bool (and .def_1421 .def_1423))
(define-fun .def_1427 () Bool (and .def_1424 .def_1426))
(define-fun .def_1435 () Bool (and .def_1427 .def_1434))
(define-fun .def_1443 () Bool (and .def_1435 .def_1442))
(define-fun .def_1450 () Bool (and .def_1443 .def_1449))
(define-fun .def_1459 () Bool (and .def_1450 .def_1458))
(define-fun .def_1476 () Bool (and .def_1459 .def_1475))
(define-fun .def_1485 () Bool (and .def_1476 .def_1484))
(define-fun .def_1502 () Bool (and .def_1485 .def_1501))
(define-fun .def_1512 () Bool (and .def_1502 .def_1511))
(define-fun .def_1514 () Bool (and .def_1512 .def_1513))
(define-fun .def_1516 () Bool (and .def_1514 .def_1515))
(define-fun .def_1518 () Bool (and .def_1516 .def_1517))
(define-fun .def_1520 () Bool (and .def_1518 .def_1519))
(define-fun .def_1522 () Bool (and .def_1520 .def_1521))
(define-fun .def_1524 () Bool (and .def_1522 .def_1523))
(define-fun .def_1526 () Bool (and .def_1524 .def_1525))
(define-fun .def_1528 () Bool (and .def_1526 .def_1527))
(define-fun .def_1530 () Bool (and .def_1528 .def_1529))
(define-fun .def_1632 () Bool (and .def_1530 .def_1631))
(define-fun .def_1634 () Bool (and .def_1632 .def_1633))
(define-fun .def_1309 () Bool (<= 32767 _X9_))
(define-fun .def_1310 () Bool (not .def_1309))
(define-fun .def_1305 () Bool (<= 32767 _X8_))
(define-fun .def_1306 () Bool (not .def_1305))
(define-fun .def_1301 () Bool (<= 32767 _X7_))
(define-fun .def_1302 () Bool (not .def_1301))
(define-fun .def_1297 () Bool (<= 32767 _X6_))
(define-fun .def_1298 () Bool (not .def_1297))
(define-fun .def_1293 () Bool (<= 32767 _X5_))
(define-fun .def_1294 () Bool (not .def_1293))
(define-fun .def_1289 () Bool (<= 32767 _X4_))
(define-fun .def_1290 () Bool (not .def_1289))
(define-fun .def_1285 () Bool (<= 32767 _X3_))
(define-fun .def_1286 () Bool (not .def_1285))
(define-fun .def_1281 () Bool (<= 32767 _X2_))
(define-fun .def_1282 () Bool (not .def_1281))
(define-fun .def_1276 () Bool (<= 32767 _X1_))
(define-fun .def_1277 () Bool (not .def_1276))
(define-fun .def_1279 () Bool (and .def_1277 call_excludes12.excludes))
(define-fun .def_1283 () Bool (and .def_1279 .def_1282))
(define-fun .def_1287 () Bool (and .def_1283 .def_1286))
(define-fun .def_1291 () Bool (and .def_1287 .def_1290))
(define-fun .def_1295 () Bool (and .def_1291 .def_1294))
(define-fun .def_1299 () Bool (and .def_1295 .def_1298))
(define-fun .def_1303 () Bool (and .def_1299 .def_1302))
(define-fun .def_1307 () Bool (and .def_1303 .def_1306))
(define-fun .def_1311 () Bool (and .def_1307 .def_1310))
(define-fun .def_1313 () Bool (= .def_1311 call_Sofar.flby))
(define-fun .def_1273 () Bool (= call_rtp.flby7 0))
(define-fun .def_1270 () Bool (= call_rtp.flby6 0))
(define-fun .def_1267 () Bool (= call_rtp.flby5 0))
(define-fun .def_1264 () Bool (= call_rtp.flby4 0))
(define-fun .def_1261 () Bool (= call_rtp.flby3 0))
(define-fun .def_1258 () Bool (= call_rtp.flby2 0))
(define-fun .def_1255 () Bool (= call_rtp.flby 1))
(define-fun .def_1252 () Bool (= call_rtp.flby9 0))
(define-fun .def_1249 () Bool (= call_rtp.flby8 0))
(define-fun .def_1243 () Bool (= call_rtp.ite11 call_rtp.ite12))
(define-fun .def_1246 () Bool (or .def_1243 .def_1245))
(define-fun .def_1237 () Bool (= call_rtp.ite44 call_rtp.ite45))
(define-fun .def_1238 () Bool (or .def_1233 .def_1237))
(define-fun .def_1231 () Bool (= call_rtp.ite6 call_rtp.ite7))
(define-fun .def_1234 () Bool (or .def_1231 .def_1233))
(define-fun .def_1239 () Bool (and .def_1234 .def_1238))
(define-fun .def_1224 () Bool (= call_rtp.ite3 call_rtp.ite2))
(define-fun .def_1227 () Bool (or .def_1224 .def_1226))
(define-fun .def_1217 () Bool (= call_rtp.ite37 call_rtp.ite38))
(define-fun .def_1220 () Bool (or .def_1217 .def_1219))
(define-fun .def_1210 () Bool (= call_rtp.ite33 call_rtp.ite34))
(define-fun .def_1213 () Bool (or .def_1210 .def_1212))
(define-fun .def_1203 () Bool (= call_rtp.ite27 call_rtp.ite28))
(define-fun .def_1206 () Bool (or .def_1203 .def_1205))
(define-fun .def_1196 () Bool (= call_rtp.ite16 call_rtp.ite17))
(define-fun .def_1199 () Bool (or .def_1196 .def_1198))
(define-fun .def_1190 () Bool (= call_rtp.ite21 call_rtp.ite22))
(define-fun .def_1193 () Bool (or .def_1190 .def_1192))
(define-fun .def_1200 () Bool (and .def_1193 .def_1199))
(define-fun .def_1207 () Bool (and .def_1200 .def_1206))
(define-fun .def_1214 () Bool (and .def_1207 .def_1213))
(define-fun .def_1221 () Bool (and .def_1214 .def_1220))
(define-fun .def_1228 () Bool (and .def_1221 .def_1227))
(define-fun .def_1240 () Bool (and .def_1228 .def_1239))
(define-fun .def_1247 () Bool (and .def_1240 .def_1246))
(define-fun .def_1250 () Bool (and .def_1247 .def_1249))
(define-fun .def_1253 () Bool (and .def_1250 .def_1252))
(define-fun .def_1256 () Bool (and .def_1253 .def_1255))
(define-fun .def_1259 () Bool (and .def_1256 .def_1258))
(define-fun .def_1262 () Bool (and .def_1259 .def_1261))
(define-fun .def_1265 () Bool (and .def_1262 .def_1264))
(define-fun .def_1268 () Bool (and .def_1265 .def_1267))
(define-fun .def_1271 () Bool (and .def_1268 .def_1270))
(define-fun .def_1274 () Bool (and .def_1271 .def_1273))
(define-fun .def_1314 () Bool (and .def_1274 .def_1313))
(define-fun .def_1635 () Bool (and .def_1314 .def_1634))
(assert .def_1635)
